(set-logic LIA) (declare-var i!M15 Int) (declare-var j!37 Int) (declare-var mPostExec Int) (declare-var i!43 Int) (declare-var nPostExec Int) (declare-var j!31 Int) (declare-var iPostExec Int) (declare-var inI3 Int) (declare-var j!M15 Int) (declare-var inI2 Int) (declare-var inB4 Bool) (declare-var j!0 Int) (declare-var i!0 Int) (declare-var inB0 Bool) (declare-var J25 Bool) (declare-var J20 Bool) (declare-var jPostExec Int) (synth-fun rankingFunction!0 ((arg0 Int) (arg1 Int) (arg2 Int) (arg3 Int)) Int ((NTInt Int) (NTbool Bool)) ((NTInt Int (arg0 arg1 arg2 arg3 0 1 (- NTInt) (+ NTInt NTInt) (- NTInt NTInt) (ite NTbool NTInt NTInt))) (NTbool Bool ((not NTbool) (and NTbool NTbool) (or NTbool NTbool) (ite NTbool NTbool NTbool) (= NTInt NTInt) (< NTInt NTInt) (> NTInt NTInt))))) (constraint (=> (and (and (and (and (and (and (and (and (and (and (and (and (and (and (and (and (and (and (and (and (and (and (= J20 (>= i!M15 i!0)) (= J25 (>= j!M15 j!0))) (= j!37 0)) (= i!43 (+ 1 i!M15))) (= j!31 (+ 1 j!M15))) (=> (and (not J20) J25) (= nPostExec i!43))) (=> (and (not J20) J25) (= mPostExec 0))) (=> (and (not J20) (not J25)) (= nPostExec i!M15))) (=> (and (not J20) (not J25)) (= mPostExec j!31))) (or (and (not J20) J25) (and (not J20) (not J25)))) (= inB0 (<= j!0 0))) (= inB4 (<= i!0 j!0))) (= inI3 0)) (= inI2 0)) (and (not inB0) (not inB4))) (> i!0 0)) (> j!0 0)) (>= i!0 0)) (>= j!0 0)) (>= i!M15 0)) (>= j!M15 0)) (= i!M15 iPostExec)) (= j!M15 jPostExec)) (and (> (rankingFunction!0 i!M15 j!M15 i!0 j!0) (rankingFunction!0 iPostExec jPostExec nPostExec mPostExec)) (>= (rankingFunction!0 i!M15 j!M15 i!0 j!0) 0)))) (check-synth)